1 51 2
-806 -723 -402 -58 -764 -539 -45 -501 -940 -387 -588 -476 -256 -585 -847 -234 -376 -961 -785 -223 -888 -56 -971 -516 -261 -779 -981 -312 -771 -454 -931 -54 -254 -907 -134 -322 -565 -983 -559 -952 -63 -427 -492 -55 -172 -457 -143 -212 -529 -733 0 
-109 -297 -609 -862 -162 -467 -903 -536 -100 -577 -357 -595 -695 -450 -153 -696 -655 -130 -220 -742 -166 -972 -116 -430 -760 -171 -3 -654 -314 -604 -35 -860 -665 -10 -895 -752 -346 -91 -368 -81 -876 -595 -417 -938 -915 -593 -894 -836 -396 -336 0 
618 702 846 153 573 919 370 986 29 203 611 43 914 808 492 647 229 645 698 507 273 407 376 761 960 502 367 339 149 259 446 935 917 749 269 243 268 728 257 657 506 338 169 189 459 368 116 190 752 888 1 
12415 
